5 5
7 2 5 16 3 2 2 1 17 5 18 1 5 19 4 1 9 5 11 3 9 4 19 5 3 11 5 10 2 17 4 18 1 11 5 3 15 1 20 4 16 2 10 5 19 4 3 5 2 17 5 17 4 5
5 3 4 8 5 11 2 8 2 3 2 1 19 4 2 10 3 5 1 4 5 13 4 3 11 2 10 1 14 5 8 1 5 14
7 3 1 16 2 11 5 13 1 4 15 3 4 17 1 15 2 10 2 4 4 1 8 4 3 7 1 17 4 18 5 3 1 5 20 1 4 13
5 1 2 4 3 5 4 4 18 1 20 2 3 3 4 18 3 2 18 4 9 1 18 3 5 16 1 11 3 10
8 2 2 19 5 18 5 4 8 2 11 1 11 5 2 3 6 4 5 11 1 11 3 14 2 15 3 5 20 3 17 4 9 2 3 6 1 19 3 3 8 4 5 5 12 3 4 7 3 3 5 12 4 2 17 5 6 1 19 4 19